&control
   calculation = 'relax'
   restart_mode='from_scratch',
   prefix='surface',
   tstress = .true.
   tprnfor = .true.
   pseudo_dir = '/expanse/lustre/projects/csd622/tpascal/nano110/qe/pseudo/',
   outdir='./'
   verbosity = 'high'
/

&system
    ibrav           = 8,
    a               = 8.34258,
	b = 8.34258,
	c = 14.17129,
    nat             = 16,
    ntyp            = 1,
    ecutwfc         = 30.0,
    ecutrho         = 300.0,
    occupations = 'smearing',
    smearing = 'gaussian',
    degauss = 0.003
/

&electrons
    conv_thr        = 1.0d-6
    mixing_beta     = 0.3
/

&ions
	ion_dynamics = 'bfgs'
/

ATOMIC_SPECIES
Au    196.96655    au_pbe_v1.uspp.F.UPF 

K_POINTS (automatic)
%k %k 1 0 0 0

ATOMIC_POSITIONS {angstrom}
Au       0.0000000000      0.0000000000      0.0000000000                 
Au       0.0000000000      2.0856440000      2.0856440000                 
Au       2.0856440000      0.0000000000      2.0856440000                 
Au       2.0856440000      2.0856440000      0.0000000000                 
Au       0.0000000000      4.1712880000      0.0000000000                 
Au       0.0000000000      6.2569320000      2.0856440000                 
Au       2.0856440000      4.1712880000      2.0856440000                 
Au       2.0856440000      6.2569320000      0.0000000000                 
Au       4.1712880000      0.0000000000      0.0000000000                 
Au       4.1712880000      2.0856440000      2.0856440000                 
Au       6.2569320000      0.0000000000      2.0856440000                 
Au       6.2569320000      2.0856440000      0.0000000000                 
Au       4.1712880000      4.1712880000      0.0000000000                 
Au       4.1712880000      6.2569320000      2.0856440000                 
Au       6.2569320000      4.1712880000      2.0856440000                 
Au       6.2569320000      6.2569320000      0.0000000000                 
