&control
   calculation = 'relax'
   restart_mode='from_scratch',
   prefix='surface',
   tstress = .true.
   tprnfor = .true.
   pseudo_dir = '/expanse/lustre/projects/csd622/tpascal/nano110/qe/pseudo/',
   outdir='./'
   verbosity = 'high'
/

&system
    ibrav           = 8,
    a               = 12.23475,
	b = 8.65127,
	c = 12.88376,
    nat             = 18,
    ntyp            = 1,
    ecutwfc         = 30.0,
    ecutrho         = 300.0,
    occupations = 'smearing',
    smearing = 'gaussian',
    degauss = 0.003
/

&electrons
    conv_thr        = 1.0d-6
    mixing_beta     = 0.3
/

&ions
	ion_dynamics = 'bfgs'
/

ATOMIC_SPECIES
Au    196.96655    au_pbe_v1.uspp.F.UPF 

K_POINTS (automatic)
4 4 1 0 0 0


! 3x3x1 supercell, see cif in lattice_files
ATOMIC_POSITIONS {angstrom}
Au       2.0391250000      0.0000000000      0.0000000000                 
Au       0.0000000000      1.4418790000      1.4418790000                 
Au       2.0391250000      2.8837580000      0.0000000000                 
Au       0.0000000000      4.3256370000      1.4418790000                 
Au       2.0391250000      5.7675160000      0.0000000000                 
Au       0.0000000000      7.2093950000      1.4418790000                 
Au       6.1173750000      0.0000000000      0.0000000000                 
Au       4.0782500000      1.4418790000      1.4418790000                 
Au       6.1173750000      2.8837580000      0.0000000000                 
Au       4.0782500000      4.3256370000      1.4418790000                 
Au       6.1173750000      5.7675160000      0.0000000000                 
Au       4.0782500000      7.2093950000      1.4418790000                 
Au      10.1956250000      0.0000000000      0.0000000000                 
Au       8.1565000000      1.4418790000      1.4418790000                 
Au      10.1956250000      2.8837580000      0.0000000000                 
Au       8.1565000000      4.3256370000      1.4418790000                 
Au      10.1956250000      5.7675160000      0.0000000000                 
Au       8.1565000000      7.2093950000      1.4418790000                 
