&control
   calculation = 'relax'
   restart_mode='from_scratch',
   prefix='surface',
   tstress = .true.
   tprnfor = .true.
   pseudo_dir = '/expanse/lustre/projects/csd622/tpascal/nano110/qe/pseudo/',
   outdir='./'
   verbosity = 'high'
/

&system
    ibrav           = 8,
    a               = 8.32110,
	b = 8.32110,
	c = 14.16055,
    nat             = 16,
    ntyp            = 1,
    ecutwfc         = 30.0,
    ecutrho         = 300.0,
    occupations = 'smearing',
    smearing = 'gaussian',
    degauss = 0.003
/

&electrons
    conv_thr        = 1.0d-6
    mixing_beta     = 0.3
/

&ions
	ion_dynamics = 'bfgs'
/

ATOMIC_SPECIES
Ag    107.86820    ag_pbe_v1.4.uspp.F.UPF 

K_POINTS (automatic)
8 8 1 0 0 0

ATOMIC_POSITIONS {angstrom}
Ag       0.0000000000      0.0000000000      0.0000000000                 
Ag       0.0000000000      2.0802740000      2.0802740000                 
Ag       2.0802740000      0.0000000000      2.0802740000                 
Ag       2.0802740000      2.0802740000      0.0000000000                 
Ag       0.0000000000      4.1605480000      0.0000000000                 
Ag       0.0000000000      6.2408220000      2.0802740000                 
Ag       2.0802740000      4.1605480000      2.0802740000                 
Ag       2.0802740000      6.2408220000      0.0000000000                 
Ag       4.1605480000      0.0000000000      0.0000000000                 
Ag       4.1605480000      2.0802740000      2.0802740000                 
Ag       6.2408220000      0.0000000000      2.0802740000                 
Ag       6.2408220000      2.0802740000      0.0000000000                 
Ag       4.1605480000      4.1605480000      0.0000000000                 
Ag       4.1605480000      6.2408220000      2.0802740000                 
Ag       6.2408220000      4.1605480000      2.0802740000                 
Ag       6.2408220000      6.2408220000      0.0000000000                 
