&control
   calculation = 'relax'
   restart_mode='from_scratch',
   prefix='surface',
   tstress = .true.
   tprnfor = .true.
   pseudo_dir = '/expanse/lustre/projects/csd622/tpascal/nano110/qe/pseudo/',
   outdir='./'
   verbosity = 'high'
/

&system
    ibrav           = 8,
    a = 4.171290,
	b = 4.171290,
	c = 22.513870,
    nat = 12,
    ntyp            = 1,
    ecutwfc         = 30.0,
    ecutrho         = 300.0,
    occupations = 'smearing',
    smearing = 'gaussian',
    degauss = 0.003
/

&electrons
    conv_thr        = 1.0d-6
    mixing_beta     = 0.3
/

&ions
	ion_dynamics = 'bfgs'
/

ATOMIC_SPECIES
Au    196.96655    au_pbe_v1.uspp.F.UPF 

K_POINTS (automatic)
4 4 1 0 0 0

ATOMIC_POSITIONS {angstrom}
Au 0.000000 0.000000 0.000000 
Au 0.000000 0.000000 4.171290 
Au 0.000000 0.000000 8.342580 
Au 0.000000 2.085645 2.085645 
Au 0.000000 2.085645 6.256935 
Au 0.000000 2.085645 10.428225 
Au 2.085645 0.000000 2.085645 
Au 2.085645 0.000000 6.256935 
Au 2.085645 0.000000 10.428225 
Au 2.085645 2.085645 0.000000 
Au 2.085645 2.085645 4.171290 
Au 2.085645 2.085645 8.342580 

         
