&control
   calculation = 'relax'
   restart_mode='from_scratch',
   prefix='surface',
   tstress = .true.
   tprnfor = .true.
   pseudo_dir = '/expanse/lustre/projects/csd622/tpascal/nano110/qe/pseudo/',
   outdir='./'
   verbosity = 'high'
/

&system
    ibrav           = 14,
    a = 2.941950,
	b = 2.941950,
	c = 31.618840,
	cosAB = -0.5,
	cosBC = 0,
	cosAC = 0
    nat = 9,
    ntyp            = 1,
    ecutwfc         = 30.0,
    ecutrho         = 300.0,
    occupations = 'smearing',
    smearing = 'gaussian',
    degauss = 0.003
/

&electrons
    conv_thr        = 1.0d-6
    mixing_beta     = 0.3
/

&ions
	ion_dynamics = 'bfgs'
/

ATOMIC_SPECIES
Ag    107.86820    ag_pbe_v1.4.uspp.F.UPF

K_POINTS (automatic)
4 4 1 0 0 0

ATOMIC_POSITIONS {angstrom}
Ag 0.980649 1.961301 4.804189 
Ag 0.980649 1.961301 12.010469 
Ag 0.980649 1.961301 19.216749 
Ag 0.000000 0.000000 0.000000 
Ag 0.000000 0.000000 7.206280 
Ag 0.000000 0.000000 14.412560 
Ag 1.961301 0.980649 2.402091 
Ag 1.961301 0.980649 9.608371 
Ag 1.961301 0.980649 16.814651 

