&control
   calculation = 'relax'
   restart_mode='from_scratch',
   prefix='surface',
   tstress = .true.
   tprnfor = .true.
   pseudo_dir = '/expanse/lustre/projects/csd622/tpascal/nano110/qe/pseudo/',
   outdir='./'
   verbosity = 'high'
/

&system
    ibrav           = 14,
    a = 2.949550,
	b = 2.949550,
	c = 31.674640,
	cosAB = -0.5,
	cosBC = 0,
	cosAC = 0
    nat = 9,
    ntyp            = 1,
    ecutwfc         = 30.0,
    ecutrho         = 300.0,
    occupations = 'smearing',
    smearing = 'gaussian',
    degauss = 0.003
/

&electrons
    conv_thr        = 1.0d-6
    mixing_beta     = 0.3
/

&ions
	ion_dynamics = 'bfgs'
/

ATOMIC_SPECIES
Au    196.96655    au_pbe_v1.uspp.F.UPF 

K_POINTS (automatic)
4 4 1 0 0 0

ATOMIC_POSITIONS {angstrom}
Au 0.983182 1.966368 4.816589 
Au 0.983182 1.966368 12.041469 
Au 0.983182 1.966368 19.266349 
Au 0.000000 0.000000 0.000000 
Au 0.000000 0.000000 7.224880 
Au 0.000000 0.000000 14.449760 
Au 1.966368 0.983182 2.408291 
Au 1.966368 0.983182 9.633171 
Au 1.966368 0.983182 16.858051 

