&control
   calculation = 'relax'
   restart_mode='from_scratch',
   prefix='surface',
   tstress = .true.
   tprnfor = .true.
   pseudo_dir = '/expanse/lustre/projects/csd622/tpascal/nano110/qe/pseudo/',
   outdir='./'
   verbosity = 'high'
/

&system
    ibrav           = 8,
    a = 4.160550,
	b = 2.941950,
	c = 18.825850,
    nat = 6,
    ntyp            = 1,
    ecutwfc         = 30.0,
    ecutrho         = 300.0,
    occupations = 'smearing',
    smearing = 'gaussian',
    degauss = 0.003
/

&electrons
    conv_thr        = 1.0d-6
    mixing_beta     = 0.3
/

&ions
	ion_dynamics = 'bfgs'
/

ATOMIC_SPECIES
Ag    107.86820    ag_pbe_v1.4.uspp.F.UPF

K_POINTS (automatic)
4 4 1 0 0 0


ATOMIC_POSITIONS {angstrom}
Ag 0.000000 0.000000 0.000000 
Ag 0.000000 0.000000 2.941950 
Ag 0.000000 0.000000 5.883900 
Ag 2.080275 1.470975 1.470975 
Ag 2.080275 1.470975 4.412925 
Ag 2.080275 1.470975 7.354875 

