&control
   calculation = 'relax'
   restart_mode='from_scratch',
   prefix='surface',
   tstress = .true.
   tprnfor = .true.
   pseudo_dir = '/expanse/lustre/projects/csd622/tpascal/nano110/qe/pseudo/',
   outdir='./'
   verbosity = 'high'
/

&system
    ibrav           = 8,
    a = 4.160550,
	b = 4.160550,
	c = 22.481650,
    nat = 12,
    ntyp            = 1,
    ecutwfc         = 30.0,
    ecutrho         = 300.0,
    occupations = 'smearing',
    smearing = 'gaussian',
    degauss = 0.003
/

&electrons
    conv_thr        = 1.0d-6
    mixing_beta     = 0.3
/

&ions
	ion_dynamics = 'bfgs'
/

ATOMIC_SPECIES
Ag    107.86820    ag_pbe_v1.4.uspp.F.UPF 

K_POINTS (automatic)
4 4 1 0 0 0

ATOMIC_POSITIONS {angstrom}
Ag 0.000000 0.000000 0.000000 
Ag 0.000000 0.000000 4.160550 
Ag 0.000000 0.000000 8.321100 
Ag 0.000000 2.080275 2.080275 
Ag 0.000000 2.080275 6.240825 
Ag 0.000000 2.080275 10.401375 
Ag 2.080275 0.000000 2.080275 
Ag 2.080275 0.000000 6.240825 
Ag 2.080275 0.000000 10.401375 
Ag 2.080275 2.080275 0.000000 
Ag 2.080275 2.080275 4.160550 
Ag 2.080275 2.080275 8.321100 

                
