&control
   calculation = 'relax'
   restart_mode='from_scratch',
   prefix='surface',
   tstress = .true.
   tprnfor = .true.
   pseudo_dir = '/expanse/lustre/projects/csd622/tpascal/nano110/qe/pseudo/',
   outdir='./'
   verbosity = 'high'
/

&system
    ibrav           = 8,
    a               = 11.93031,
	b = 8.43600,
	c = 12.81200,
    nat             = 18,
    ntyp            = 1,
    ecutwfc         = 30.0,
    ecutrho         = 300.0,
    occupations = 'smearing',
    smearing = 'gaussian',
    degauss = 0.003
/

&electrons
    conv_thr        = 1.0d-6
    mixing_beta     = 0.3
/

&ions
	ion_dynamics = 'bfgs'
/

ATOMIC_SPECIES
Pt    195.084  pt_pbe_v1.4.uspp.F.UPF

K_POINTS (automatic)
4 4 1 0 0 0


! 3x3x1 supercell, see cif in lattice_files
ATOMIC_POSITIONS {angstrom}
Pt       0.0000000000      0.0000000000      0.0000000000                 
Pt       1.9883850000      1.4060005000      1.4060005000                 
Pt       0.0000000000      2.8120010000      0.0000000000                 
Pt       1.9883850000      4.2180015000      1.4060005000                 
Pt       0.0000000000      5.6240020000      0.0000000000                 
Pt       1.9883850000      7.0300025000      1.4060005000                 
Pt       3.9767700000      0.0000000000      0.0000000000                 
Pt       5.9651550000      1.4060005000      1.4060005000                 
Pt       3.9767700000      2.8120010000      0.0000000000                 
Pt       5.9651550000      4.2180015000      1.4060005000                 
Pt       3.9767700000      5.6240020000      0.0000000000                 
Pt       5.9651550000      7.0300025000      1.4060005000                 
Pt       7.9535400000      0.0000000000      0.0000000000                 
Pt       9.9419250000      1.4060005000      1.4060005000                 
Pt       7.9535400000      2.8120010000      0.0000000000                 
Pt       9.9419250000      4.2180015000      1.4060005000                 
Pt       7.9535400000      5.6240020000      0.0000000000                 
Pt       9.9419250000      7.0300025000      1.4060005000                 
