&control
   calculation = 'relax'
   restart_mode='from_scratch',
   prefix='surface',
   tstress = .true.
   tprnfor = .true.
   pseudo_dir = '/expanse/lustre/projects/csd622/tpascal/nano110/qe/pseudo/',
   outdir='./'
   verbosity = 'high'
/

&system
    ibrav           = 8,
    a = 3.976770,
	b = 2.812000,
	c = 18.436000,
    nat = 6,
    ntyp            = 1,
    ecutwfc         = 30.0,
    ecutrho         = 300.0,
    occupations = 'smearing',
    smearing = 'gaussian',
    degauss = 0.003
/

&electrons
    conv_thr        = 1.0d-6
    mixing_beta     = 0.3
/

&ions
	ion_dynamics = 'bfgs'
/

ATOMIC_SPECIES
Pt    195.084  pt_pbe_v1.4.uspp.F.UPF

K_POINTS (automatic)
4 4 1 0 0 0


ATOMIC_POSITIONS {angstrom}
Pt 0.000000 0.000000 0.000000 
Pt 0.000000 0.000000 2.812000 
Pt 0.000000 0.000000 5.624000 
Pt 1.988385 1.406000 1.406000 
Pt 1.988385 1.406000 4.218000 
Pt 1.988385 1.406000 7.030000 

