&control
   calculation = 'relax'
   restart_mode='from_scratch',
   prefix='surface',
   tstress = .true.
   tprnfor = .true.
   pseudo_dir = '/expanse/lustre/projects/csd622/tpascal/nano110/qe/pseudo/',
   outdir='./'
   verbosity = 'high'
/

&system
    ibrav           = 14,
    a = 2.812000,
	b = 2.812000,
	c = 30.663910,
	cosAB = -0.5,
	cosBC = 0,
	cosAC = 0
    nat = 9,
    ntyp            = 1,
    ecutwfc         = 30.0,
    ecutrho         = 300.0,
    occupations = 'smearing',
    smearing = 'gaussian',
    degauss = 0.003
/

&electrons
    conv_thr        = 1.0d-6
    mixing_beta     = 0.3
/

&ions
	ion_dynamics = 'bfgs'
/

ATOMIC_SPECIES
Pt    195.084  pt_pbe_v1.4.uspp.F.UPF 

K_POINTS (automatic)
4 4 1 0 0 0

ATOMIC_POSITIONS {angstrom}
Pt 0.937332 1.874668 4.591982 
Pt 0.937332 1.874668 11.479952 
Pt 0.937332 1.874668 18.367922 
Pt 0.000000 0.000000 0.000000 
Pt 0.000000 0.000000 6.887970 
Pt 0.000000 0.000000 13.775940 
Pt 1.874668 0.937332 2.295988 
Pt 1.874668 0.937332 9.183958 
Pt 1.874668 0.937332 16.071928 

