&control
   calculation = 'relax'
   restart_mode='from_scratch',
   prefix='surface',
   tstress = .true.
   tprnfor = .true.
   pseudo_dir = '/expanse/lustre/projects/csd622/tpascal/nano110/qe/pseudo/',
   outdir='./'
   verbosity = 'high'
/

&system
    ibrav           = 14,
    a               = 8.82586,
	b = 8.82586,
	c = 17.20628,
	cosAB = -0.5,
	cosBC = 0,
	cosAC = 0
    nat             = 27,
    ntyp            = 1,
    ecutwfc         = 30.0,
    ecutrho         = 300.0,
    occupations = 'smearing',
    smearing = 'gaussian',
    degauss = 0.003
/

&electrons
    conv_thr        = 1.0d-6
    mixing_beta     = 0.3
/

&ions
	ion_dynamics = 'bfgs'
/

ATOMIC_SPECIES
Ag    107.86820    ag_pbe_v1.4.uspp.F.UPF

K_POINTS (automatic)
4 4 1 0 0 0

! 3x3x1 supercell, see the cif in lattice_files
ATOMIC_POSITIONS {angstrom}
Ag      -0.0000014710      1.6985376284      4.8041897354                 
Ag       0.0000000000      0.0000000000      0.0000000000                 
Ag       1.4709774710      0.8492675403      2.4020912646                 
Ag      -1.4709774710      4.2463427971      4.8041897354                 
Ag      -1.4709760000      2.5478051687      0.0000000000                 
Ag       0.0000014710      3.3970727090      2.4020912646                 
Ag      -2.9419534710      6.7941479658      4.8041897354                 
Ag      -2.9419520000      5.0956103374      0.0000000000                 
Ag      -1.4709745290      5.9448778777      2.4020912646                 
Ag       2.9419505290      1.6985376284      4.8041897354                 
Ag       2.9419520000      0.0000000000      0.0000000000                 
Ag       4.4129294710      0.8492675403      2.4020912646                 
Ag       1.4709745290      4.2463427971      4.8041897354                 
Ag       1.4709760000      2.5478051687      0.0000000000                 
Ag       2.9419534710      3.3970727090      2.4020912646                 
Ag      -0.0000014710      6.7941479658      4.8041897354                 
Ag       0.0000000000      5.0956103374      0.0000000000                 
Ag       1.4709774710      5.9448778777      2.4020912646                 
Ag       5.8839025290      1.6985376284      4.8041897354                 
Ag       5.8839040000      0.0000000000      0.0000000000                 
Ag       7.3548814710      0.8492675403      2.4020912646                 
Ag       4.4129265290      4.2463427971      4.8041897354                 
Ag       4.4129280000      2.5478051687      0.0000000000                 
Ag       5.8839054710      3.3970727090      2.4020912646                 
Ag       2.9419505290      6.7941479658      4.8041897354                 
Ag       2.9419520000      5.0956103374      0.0000000000                 
Ag       4.4129294710      5.9448778777      2.4020912646                 
