&control
   calculation = 'relax'
   restart_mode='from_scratch',
   prefix='surface',
   tstress = .true.
   tprnfor = .true.
   pseudo_dir = '/expanse/lustre/projects/csd622/tpascal/nano110/qe/pseudo/',
   outdir='./'
   verbosity = 'high'
/

&system
    ibrav           = 8,
    a = 3.976770,
	b = 3.976770,
	c = 21.930310,
    nat = 12,
    ntyp            = 1,
    ecutwfc         = 30.0,
    ecutrho         = 300.0,
    occupations = 'smearing',
    smearing = 'gaussian',
    degauss = 0.003
/

&electrons
    conv_thr        = 1.0d-6
    mixing_beta     = 0.3
/

&ions
	ion_dynamics = 'bfgs'
/

ATOMIC_SPECIES
Pt    195.084  pt_pbe_v1.4.uspp.F.UPF

K_POINTS (automatic)
4 4 1 0 0 0

ATOMIC_POSITIONS {angstrom}
Pt 0.000000 0.000000 0.000000 
Pt 0.000000 0.000000 3.976770 
Pt 0.000000 0.000000 7.953540 
Pt 0.000000 1.988385 1.988385 
Pt 0.000000 1.988385 5.965155 
Pt 0.000000 1.988385 9.941925 
Pt 1.988385 0.000000 1.988385 
Pt 1.988385 0.000000 5.965155 
Pt 1.988385 0.000000 9.941925 
Pt 1.988385 1.988385 0.000000 
Pt 1.988385 1.988385 3.976770 
Pt 1.988385 1.988385 7.953540 

         
