&control
   calculation = 'relax'
   restart_mode='from_scratch',
   prefix='surface',
   tstress = .true.
   tprnfor = .true.
   pseudo_dir = '/expanse/lustre/projects/csd622/tpascal/nano110/qe/pseudo/',
   outdir='./'
   verbosity = 'high'
/

&system
    ibrav           = 14,
    a               = 8.43600,
	b = 8.43600,
	c = 16.88797,
	cosAB = -0.5,
	cosBC = 0,
	cosAC = 0
    nat             = 27,
    ntyp            = 1,
    ecutwfc         = 30.0,
    ecutrho         = 300.0,
    occupations = 'smearing',
    smearing = 'gaussian',
    degauss = 0.003
/

&electrons
    conv_thr        = 1.0d-6
    mixing_beta     = 0.3
/

&ions
	ion_dynamics = 'bfgs'
/

ATOMIC_SPECIES
Pt    195.084  pt_pbe_v1.4.uspp.F.UPF 

K_POINTS (automatic)
4 4 1 0 0 0

! 3x3x1 supercell, see the cif in lattice_files
ATOMIC_POSITIONS {angstrom}
Pt      -0.0000014060      1.6235103461      4.5919809627                 
Pt       0.0000000000      0.0000000000      0.0000000000                 
Pt       1.4060019060      0.8117539554      2.2959870373                 
Pt      -1.4060019060      4.0587746475      4.5919809627                 
Pt      -1.4060005000      2.4352643015      0.0000000000                 
Pt       0.0000014060      3.2470182569      2.2959870373                 
Pt      -2.8120024060      6.4940389490      4.5919809627                 
Pt      -2.8120010000      4.8705286029      0.0000000000                 
Pt      -1.4059990940      5.6822825583      2.2959870373                 
Pt       2.8119995940      1.6235103461      4.5919809627                 
Pt       2.8120010000      0.0000000000      0.0000000000                 
Pt       4.2180029060      0.8117539554      2.2959870373                 
Pt       1.4059990940      4.0587746475      4.5919809627                 
Pt       1.4060005000      2.4352643015      0.0000000000                 
Pt       2.8120024060      3.2470182569      2.2959870373                 
Pt      -0.0000014060      6.4940389490      4.5919809627                 
Pt       0.0000000000      4.8705286029      0.0000000000                 
Pt       1.4060019060      5.6822825583      2.2959870373                 
Pt       5.6240005940      1.6235103461      4.5919809627                 
Pt       5.6240020000      0.0000000000      0.0000000000                 
Pt       7.0300039060      0.8117539554      2.2959870373                 
Pt       4.2180000940      4.0587746475      4.5919809627                 
Pt       4.2180015000      2.4352643015      0.0000000000                 
Pt       5.6240034060      3.2470182569      2.2959870373                 
Pt       2.8119995940      6.4940389490      4.5919809627                 
Pt       2.8120010000      4.8705286029      0.0000000000                 
Pt       4.2180029060      5.6822825583      2.2959870373                 
