&control
   calculation = 'relax'
   restart_mode='from_scratch',
   prefix='surface',
   tstress = .true.
   tprnfor = .true.
   pseudo_dir = '/expanse/lustre/projects/csd622/tpascal/nano110/qe/pseudo/',
   outdir='./'
   verbosity = 'high'
/

&system
    ibrav           = 14,
    a               = 8.84864,
	b = 8.84864,
	c = 17.22488,
	cosAB = -0.5,
	cosBC = 0,
	cosAC = 0
    nat             = 27,
    ntyp            = 1,
    ecutwfc         = 30.0,
    ecutrho         = 300.0,
    occupations = 'smearing',
    smearing = 'gaussian',
    degauss = 0.003
/

&electrons
    conv_thr        = 1.0d-6
    mixing_beta     = 0.3
/

&ions
	ion_dynamics = 'bfgs'
/

ATOMIC_SPECIES
Au    196.96655    au_pbe_v1.uspp.F.UPF 

K_POINTS (automatic)
4 4 1 0 0 0

! 3x3x1 supercell, see the cif in lattice_files
ATOMIC_POSITIONS {angstrom}
Au      -0.0000014748      1.7029220285      4.8165910750                 
Au       0.0000000000      0.0000000000      0.0000000000                 
Au       1.4747744748      0.8514597371      2.4082919250                 
Au      -1.4747744748      4.2573037942      4.8165910750                 
Au      -1.4747730000      2.5543817656      0.0000000000                 
Au       0.0000014748      3.4058415027      2.4082919250                 
Au      -2.9495474748      6.8116855598      4.8165910750                 
Au      -2.9495460000      5.1087635313      0.0000000000                 
Au      -1.4747715252      5.9602232683      2.4082919250                 
Au       2.9495445252      1.7029220285      4.8165910750                 
Au       2.9495460000      0.0000000000      0.0000000000                 
Au       4.4243204748      0.8514597371      2.4082919250                 
Au       1.4747715252      4.2573037942      4.8165910750                 
Au       1.4747730000      2.5543817656      0.0000000000                 
Au       2.9495474748      3.4058415027      2.4082919250                 
Au      -0.0000014748      6.8116855598      4.8165910750                 
Au       0.0000000000      5.1087635313      0.0000000000                 
Au       1.4747744748      5.9602232683      2.4082919250                 
Au       5.8990905252      1.7029220285      4.8165910750                 
Au       5.8990920000      0.0000000000      0.0000000000                 
Au       7.3738664748      0.8514597371      2.4082919250                 
Au       4.4243175252      4.2573037942      4.8165910750                 
Au       4.4243190000      2.5543817656      0.0000000000                 
Au       5.8990934748      3.4058415027      2.4082919250                 
Au       2.9495445252      6.8116855598      4.8165910750                 
Au       2.9495460000      5.1087635313      0.0000000000                 
Au       4.4243204748      5.9602232683      2.4082919250                 
                 
